
molecule {
  0 1
   H    0.0   0.0   0.0
   H    1.4   0.0   0.0
  units bohr
}

set {
    basis         sto-3g
    guess         core
    scf_type      pk
}

energy('scf')
